c
c DIMACS code generated using the Coffee framework
c
p cnf 49 18
1 -2
-1 2
1 -5
-1 5
-3 1
-4 1
-2 6 7
-6 2
-6 -7
-2 7 6
-7 2
-7 -6
-3 8 9
-8 3
-8 -9
-3 9 8
-9 3
-9 -8
-4 10 11
-10 4
-10 -11
-4 11 10
-11 4
-11 -10
-5 12 13 14 15 16 17 18
5 -12
5 -13
5 -14
5 -15
5 -16
5 -17
5 -18
-13 11
-14 6
-14 11
-15 4
-16 7
-12 7
-12 8
-18 7
-18 8
-17 6
-17 8
-14 -16
-14 -12
-14 -18
-17 -16
-17 -12
-17 -18
